# Objective value = 6
WA1n 1
WA1p 0
WA2n 0
WA2p 0
WB1n 1
WB1p 0
WB2n 0
WB2p 0
WC1n 1
WC1p 0
WC2n 0
WC2p 0
WD1n 1
WD1p 0
WD2n 0
WD2p 0
WE1n 0
WE1p 1
WE2n 0
WE2p 0
WT1n 0
WT1p 1
WT2n 0
WT2p 0
100 100
a 0
b 0
c 0
d 0
e 0
f 0
g 0
h 0
i 1
j 1
k 1
l 1
